job_count = 45 ;
duration = [|4, 7, 5, 14, 7, 4, 3, 15, 4|6, 6, 18, 11, 15, 2, 17, 9, 8|6, 21, 20, 20, 11, 9, 6, 7, 7|10, 9, 21, 15, 4, 5, 3, 10, 14|9, 21, 7, 18, 11, 18, 9, 15, 5|11, 14, 22, 4, 10, 9, 15, 8, 13|12, 21, 15, 14, 13, 18, 9, 15, 7|18, 5, 2, 10, 19, 7, 14, 15, 4|2, 19, 15, 4, 12, 17, 4, 4, 5|7, 6, 15, 20, 13, 4, 10, 5, 13|15, 12, 13, 8, 10, 17, 6, 10, 11|14, 4, 2, 14, 18, 15, 9, 7, 3|21, 23, 15, 18, 9, 16, 12, 11, 4|16, 9, 21, 19, 5, 5, 14, 3, 7|22, 3, 18, 10, 10, 9, 3, 5, 11|23, 15, 21, 11, 17, 3, 7, 10, 12|23, 11, 10, 4, 4, 13, 10, 2, 14|20, 17, 20, 9, 10, 2, 3, 6, 5|23, 20, 2, 15, 6, 10, 5, 7, 6|16, 2, 16, 17, 18, 12, 5, 11, 5|7, 11, 6, 12, 3, 17, 3, 10, 13|7, 13, 7, 2, 13, 3, 9, 4, 3|12, 6, 3, 2, 4, 13, 7, 7, 7|17, 16, 11, 10, 16, 8, 4, 11, 4|13, 7, 3, 16, 2, 17, 14, 10, 4|7, 23, 13, 4, 18, 9, 13, 14, 9|3, 20, 22, 10, 10, 14, 10, 10, 4|5, 7, 8, 16, 9, 12, 17, 4, 5|18, 20, 7, 10, 16, 7, 8, 8, 14|23, 7, 3, 14, 13, 10, 13, 3, 14|16, 17, 20, 20, 5, 4, 3, 4, 11|3, 2, 20, 16, 16, 5, 11, 9, 13|24, 16, 11, 17, 19, 3, 7, 10, 5|11, 7, 12, 17, 15, 16, 9, 7, 4|18, 16, 11, 19, 14, 8, 14, 9, 8|10, 3, 14, 18, 12, 18, 6, 3, 6|14, 19, 14, 2, 14, 18, 12, 13, 13|15, 6, 7, 13, 7, 11, 7, 6, 14|24, 4, 22, 3, 15, 7, 17, 5, 2|22, 19, 6, 20, 9, 12, 9, 8, 3|15, 12, 17, 7, 5, 7, 3, 9, 4|2, 22, 11, 16, 4, 17, 14, 11, 5|9, 18, 5, 13, 19, 14, 6, 10, 5|24, 2, 5, 18, 8, 4, 14, 3, 13|11, 14, 22, 20, 18, 14, 9, 12, 8|] ;
machine_count = 9 ;
cost = [|21, 27, 28, 34, 32, 44, 43, 33, 53|30, 17, 21, 29, 42, 30, 47, 28, 38|24, 31, 32, 30, 41, 41, 31, 42, 34|19, 24, 34, 29, 30, 35, 38, 30, 46|30, 24, 22, 31, 27, 27, 31, 42, 27|31, 33, 27, 33, 38, 45, 44, 47, 28|26, 23, 24, 38, 32, 29, 44, 48, 53|25, 31, 23, 24, 42, 26, 34, 40, 31|16, 19, 21, 39, 23, 31, 32, 40, 31|28, 25, 35, 26, 23, 25, 43, 43, 45|18, 32, 37, 23, 22, 37, 46, 48, 44|27, 26, 27, 36, 25, 41, 47, 50, 49|27, 18, 36, 27, 38, 26, 36, 33, 39|29, 23, 36, 27, 36, 45, 40, 44, 37|19, 25, 27, 37, 24, 23, 37, 29, 27|23, 25, 24, 33, 23, 29, 26, 42, 36|24, 27, 36, 32, 34, 28, 36, 29, 28|18, 26, 34, 37, 32, 34, 37, 47, 49|24, 32, 37, 35, 24, 31, 42, 38, 42|19, 27, 35, 20, 37, 36, 35, 51, 40|26, 21, 24, 27, 30, 38, 32, 51, 27|18, 21, 32, 37, 36, 30, 32, 31, 53|31, 29, 20, 39, 35, 25, 28, 45, 47|23, 32, 29, 32, 39, 33, 31, 31, 42|30, 22, 30, 37, 26, 25, 42, 40, 36|16, 31, 28, 22, 22, 39, 32, 32, 48|19, 21, 35, 27, 38, 42, 42, 47, 44|22, 24, 23, 24, 39, 39, 35, 29, 27|31, 20, 21, 21, 42, 29, 36, 43, 37|28, 20, 35, 32, 26, 38, 31, 47, 33|20, 23, 31, 28, 25, 32, 25, 29, 38|26, 21, 25, 21, 33, 33, 26, 30, 37|26, 28, 23, 31, 28, 28, 26, 33, 52|29, 24, 37, 27, 23, 31, 41, 28, 52|18, 30, 23, 20, 37, 32, 34, 28, 35|24, 23, 20, 26, 35, 42, 45, 49, 33|19, 18, 37, 33, 22, 29, 27, 49, 31|18, 17, 32, 36, 38, 35, 39, 51, 40|22, 20, 32, 29, 37, 24, 31, 51, 41|18, 27, 19, 34, 27, 30, 35, 27, 27|29, 20, 28, 39, 25, 45, 26, 31, 41|20, 20, 34, 27, 41, 37, 33, 51, 49|30, 20, 24, 20, 25, 28, 27, 39, 43|30, 29, 33, 24, 27, 36, 34, 31, 50|30, 32, 37, 35, 40, 33, 32, 28, 39|] ;
deadline = [33, 33, 33, 33, 33, 33, 33, 33, 33, 33, 33, 33, 33, 33, 33, 33, 33, 33, 33, 33, 33, 33, 33, 33, 33, 33, 33, 33, 33, 33, 33, 33, 33, 33, 33, 33, 33, 33, 33, 33, 33, 33, 33, 33, 33] ;
release = [0, 0, 0, 0, 0, 0, 0, 0, 0, 0, 0, 0, 0, 0, 0, 0, 0, 0, 0, 0, 0, 0, 0, 0, 0, 0, 0, 0, 0, 0, 0, 0, 0, 0, 0, 0, 0, 0, 0, 0, 0, 0, 0, 0, 0] ;
resource = [|4, 4, 4, 4, 4, 4, 4, 4, 4|8, 8, 8, 8, 8, 8, 8, 8, 8|1, 1, 1, 1, 1, 1, 1, 1, 1|9, 9, 9, 9, 9, 9, 9, 9, 9|3, 3, 3, 3, 3, 3, 3, 3, 3|9, 9, 9, 9, 9, 9, 9, 9, 9|7, 7, 7, 7, 7, 7, 7, 7, 7|5, 5, 5, 5, 5, 5, 5, 5, 5|7, 7, 7, 7, 7, 7, 7, 7, 7|2, 2, 2, 2, 2, 2, 2, 2, 2|1, 1, 1, 1, 1, 1, 1, 1, 1|5, 5, 5, 5, 5, 5, 5, 5, 5|9, 9, 9, 9, 9, 9, 9, 9, 9|5, 5, 5, 5, 5, 5, 5, 5, 5|7, 7, 7, 7, 7, 7, 7, 7, 7|2, 2, 2, 2, 2, 2, 2, 2, 2|2, 2, 2, 2, 2, 2, 2, 2, 2|7, 7, 7, 7, 7, 7, 7, 7, 7|5, 5, 5, 5, 5, 5, 5, 5, 5|5, 5, 5, 5, 5, 5, 5, 5, 5|8, 8, 8, 8, 8, 8, 8, 8, 8|4, 4, 4, 4, 4, 4, 4, 4, 4|1, 1, 1, 1, 1, 1, 1, 1, 1|1, 1, 1, 1, 1, 1, 1, 1, 1|7, 7, 7, 7, 7, 7, 7, 7, 7|9, 9, 9, 9, 9, 9, 9, 9, 9|5, 5, 5, 5, 5, 5, 5, 5, 5|5, 5, 5, 5, 5, 5, 5, 5, 5|7, 7, 7, 7, 7, 7, 7, 7, 7|6, 6, 6, 6, 6, 6, 6, 6, 6|2, 2, 2, 2, 2, 2, 2, 2, 2|1, 1, 1, 1, 1, 1, 1, 1, 1|2, 2, 2, 2, 2, 2, 2, 2, 2|2, 2, 2, 2, 2, 2, 2, 2, 2|7, 7, 7, 7, 7, 7, 7, 7, 7|5, 5, 5, 5, 5, 5, 5, 5, 5|8, 8, 8, 8, 8, 8, 8, 8, 8|2, 2, 2, 2, 2, 2, 2, 2, 2|7, 7, 7, 7, 7, 7, 7, 7, 7|4, 4, 4, 4, 4, 4, 4, 4, 4|4, 4, 4, 4, 4, 4, 4, 4, 4|7, 7, 7, 7, 7, 7, 7, 7, 7|8, 8, 8, 8, 8, 8, 8, 8, 8|1, 1, 1, 1, 1, 1, 1, 1, 1|1, 1, 1, 1, 1, 1, 1, 1, 1|] ;
capacities = [10, 10, 10, 10, 10, 10, 10, 10, 10] ;
